c Generated from Nested-Unit Petri Net model NUPN1/1676.nupn
c (C) 2020 Pierre Bouvier and Hubert Garavel at INRIA Grenoble Rhône-Alpes
c Produced by the CONVECS research team (http://convecs.inria.fr)
c Licensed under CC-BY Creative Commons Attribution 4.0 International License
c (license terms available from http://creativecommons.org/licenses/by/4.0)
p cnf 10 17
1 0
3 4 0
5 6 0
7 8 0
9 10 0
-1 -9 0
-2 -10 0
-5 -9 0
-6 -10 0
-5 -7 0
-6 -8 0
-3 -9 0
-4 -10 0
-1 -7 0
-2 -8 0
-3 -7 0
-4 -8 0
0
